WARNING: for repeatability, setting FPU to use double precision
============================[ Problem Statistics ]=============================
|                                                                             |
|  Number of variables:            50                                         |
|  Number of clauses:             218                                         |
|  Parse time:                   0.00 s                                       |
|                                                                             |
============================[ Search Statistics ]==============================
| Conflicts |          ORIGINAL         |          LEARNT          | Progress |
|           |    Vars  Clauses Literals |    Limit  Clauses Lit/Cl |          |
===============================================================================
===============================================================================
restarts              : 1
conflicts             : 36             (281250 /sec)
decisions             : 57             (0.00 % random) (445312 /sec)
propagations          : 503            (3929688 /sec)
conflict literals     : 165            (15.82 % deleted)
Memory used           : 20.00 MB
CPU time              : 0.000128 s

SATISFIABLE
